Gurobi Optimizer version 9.1.2 build v9.1.2rc0 (linux64)
Thread count: 36 physical cores, 72 logical processors, using up to 32 threads
Optimize a model with 12 rows, 57 columns and 590 nonzeros
Model fingerprint: 0xf32eec78
Model has 47 quadratic constraints
Coefficient statistics:
  Matrix range     [2e-05, 3e+00]
  QMatrix range    [1e+00, 1e+00]
  QLMatrix range   [1e+00, 1e+00]
  Objective range  [8e-03, 7e-01]
  Bounds range     [1e+00, 1e+00]
  RHS range        [1e+00, 1e+00]
Presolve removed 9 rows and 0 columns

Continuous model is non-convex -- solving as a MIP.

Presolve removed 9 rows and 0 columns
Presolve time: 0.00s
Presolved: 189 rows, 57 columns, 443 nonzeros
Presolved model has 47 bilinear constraint(s)
Variable types: 57 continuous, 0 integer (0 binary)

Root relaxation: objective -1.743721e+00, 44 iterations, 0.00 seconds

    Nodes    |    Current Node    |     Objective Bounds      |     Work
 Expl Unexpl |  Obj  Depth IntInf | Incumbent    BestBd   Gap | It/Node Time

     0     0   -1.74372    0   38          -   -1.74372      -     -    0s
H    0     0                       0.6147548   -1.74372   384%     -    0s
     0     0   -1.64739    0    1    0.61475   -1.64739   368%     -    0s
H    0     0                      -1.6450460   -1.64739  0.14%     -    0s
     0     0     cutoff    0        -1.64505   -1.64505  0.00%     -    0s

Cutting planes:
  RLT: 25
  BQP: 3

Explored 1 nodes (76 simplex iterations) in 0.01 seconds
Thread count was 32 (of 72 available processors)

Solution count 2: -1.64505 0.614755 
No other solutions better than -1.64505

Optimal solution found (tolerance 1.00e-04)
Best objective -1.645045978473e+00, best bound -1.645045978473e+00, gap 0.0000%

User-callback calls 78, time in user-callback 0.00 sec
Gurobi Optimizer version 9.1.2 build v9.1.2rc0 (linux64)
Thread count: 36 physical cores, 72 logical processors, using up to 32 threads
Optimize a model with 24 rows, 125 columns and 2580 nonzeros
Model fingerprint: 0xa99b95c2
Model has 105 quadratic constraints
Coefficient statistics:
  Matrix range     [6e-06, 5e+01]
  QMatrix range    [1e+00, 1e+00]
  QLMatrix range   [1e+00, 1e+00]
  Objective range  [1e-02, 1e+00]
  Bounds range     [1e+00, 1e+00]
  RHS range        [1e+00, 1e+00]
Presolve removed 11 rows and 0 columns

Continuous model is non-convex -- solving as a MIP.

Presolve removed 11 rows and 0 columns
Presolve time: 0.00s
Presolved: 428 rows, 125 columns, 2018 nonzeros
Presolved model has 105 bilinear constraint(s)
Variable types: 125 continuous, 0 integer (0 binary)

Root relaxation: objective -4.687843e+00, 134 iterations, 0.00 seconds

    Nodes    |    Current Node    |     Objective Bounds      |     Work
 Expl Unexpl |  Obj  Depth IntInf | Incumbent    BestBd   Gap | It/Node Time

     0     0   -4.68784    0   95          -   -4.68784      -     -    0s
H    0     0                       0.4430949   -4.68784  1158%     -    0s
     0     0   -3.83320    0   83    0.44309   -3.83320   965%     -    0s
H    0     0                      -1.7644324   -3.83320   117%     -    0s
     0     0   -3.82218    0   83   -1.76443   -3.82218   117%     -    0s
     0     0   -3.69229    0   66   -1.76443   -3.69229   109%     -    0s
     0     0   -3.68054    0   88   -1.76443   -3.68054   109%     -    0s
     0     0   -3.64638    0   66   -1.76443   -3.64638   107%     -    0s
     0     0   -3.64214    0   66   -1.76443   -3.64214   106%     -    0s
     0     0   -3.62162    0   76   -1.76443   -3.62162   105%     -    0s
     0     0   -3.62041    0   65   -1.76443   -3.62041   105%     -    0s
     0     0   -3.61576    0   83   -1.76443   -3.61576   105%     -    0s
     0     0   -3.61499    0   77   -1.76443   -3.61499   105%     -    0s
     0     0   -3.61393    0   76   -1.76443   -3.61393   105%     -    0s
     0     0   -3.61331    0   83   -1.76443   -3.61331   105%     -    0s
     0     0   -3.61326    0   77   -1.76443   -3.61326   105%     -    0s
     0     0   -3.61326    0   77   -1.76443   -3.61326   105%     -    0s
H    0     0                      -2.5544460   -3.61326  41.4%     -    0s
H    0     0                      -2.7528475   -3.61326  31.3%     -    0s
H    0     0                      -2.8980818   -3.61326  24.7%     -    0s
     0     2   -3.61326    0   77   -2.89808   -3.61326  24.7%     -    0s
*  699   434              20      -2.9045223   -3.30817  13.9%  26.2    0s
*  745   550              30      -2.9139680   -3.30817  13.5%  25.3    0s
*  861   622              31      -2.9859939   -3.30817  10.8%  23.1    0s
*  868   622              27      -3.0516246   -3.30817  8.41%  23.0    0s
* 1178   655              20      -3.1296638   -3.18402  1.74%  20.2    0s
* 1345   421              18      -3.1301650   -3.16974  1.26%  18.8    0s
* 1346   421              18      -3.1301804   -3.16974  1.26%  18.8    0s
* 1352   421              17      -3.1303095   -3.16974  1.26%  18.7    0s
* 1353   421              17      -3.1304971   -3.16974  1.25%  18.7    0s
* 1529   421              16      -3.1310508   -3.16974  1.24%  16.6    0s
* 1530   421              16      -3.1310546   -3.16974  1.24%  16.6    0s
* 1612   111              16      -3.1311267   -3.15170  0.66%  15.9    0s
* 1625   111              15      -3.1311357   -3.15170  0.66%  15.8    0s

Cutting planes:
  RLT: 60
  BQP: 11
  PSD: 33

Explored 1969 nodes (26215 simplex iterations) in 0.57 seconds
Thread count was 32 (of 72 available processors)

Solution count 10: -3.13114 -3.13113 -3.13105 ... -3.05162
No other solutions better than -3.13114

Optimal solution found (tolerance 1.00e-04)
Best objective -3.131135725794e+00, best bound -3.131135725794e+00, gap 0.0000%

User-callback calls 4217, time in user-callback 0.00 sec



objective value: -3.131135725794012
objective bound: -3.131135725794012
x_opt: [0.0, 0.0, 1.0, 0.0, 1.0, 0.6715546827890347, 1.0, 1.0, 1.0, 0.0, 0.0, 0.19782110161342825, 0.0, 0.0, 0.0, 0.4940541717952642, 0.0, 0.0, 0.005517301964108679, 0.0]
GUROBI solution time: 0.5668649673461914




